============================[ Problem Statistics ]=============================|                                                                             ||  Number of variables:          4242                                         ||  Number of clauses:            9699                                         ||  Parse time:                   0.10 s                                       ||                                                                             |============================[ Search Statistics ]==============================| Conflicts |          ORIGINAL         |          LEARNT          | Progress ||           |    Vars  Clauses Literals |    Limit  Clauses Lit/Cl |          |==============================================================================================================================================================restarts              : 1conflicts             : 64             (403 /sec)decisions             : 150            (0.00 % random) (943 /sec)propagations          : 8164           (51346 /sec)conflict literals     : 3043           (95.93 % deleted)CPU time              : 0.159 sSATISFIABLE